9 19
15 17
11 18
11 21
2 19
1 3
13 2
10 19
15 5
8 12
7 5
15 21
15 4
2 24
12 15
9 19
3 24
3 16
8 10
12 10
5 12
5 2
5 12
3 9
3 8
15 11
14 25
1 6
12 22
4 2
3 18
7 2
12 23
1 13
8 11
13 24
13 19
10 11
9 23
13 4
4 24
10 14
12 8
15 6
9 9
3 21
13 6
9 19
14 2
15 8
200